5 5
0 58 3 3 4 15 1 45 2 95
4 11 3 39 2 19 0 79 1 20
0 86 3 71 4 56 2 78 1 4
3 9 4 25 1 47 2 99 0 49
2 27 1 28 3 88 0 97 4 97
-1
0 1 3 5
0 1 2 4 5
0 1 5
0 1 3 4 5
0 4 5
-2
89 116 240
11 61 163 170
134 379
10 90 230 298
271 464

378 6
0 10 23 8 19
21 17 3 9 14
20 7 18 4 13
15 6 1 22 11
5 16 2 12 24
